myproject/instances/20nodes/rnd22_20.tsp
NAME : rnd22_20.tsp
TYPE : TSP
DIMENSION : 20
EDGE_WEIGHT_TYPE : EUC_2D
NODE_COORD_SECTION
0 763 62
1 50 680
2 530 488
3 502 69
4 409 458
5 837 688
6 314 381
7 903 611
8 232 6
9 832 974
10 444 886
11 906 411
12 522 43
13 151 259
14 672 852
15 385 891
16 917 719
17 788 749
18 652 639
19 387 80
